DIMENSION :8
NODE_COORD_SECTION
1 81.45619434963359 -55.5012169170747
2 86.43344820344709 0.4804102382009745
3 47.43715469555988 -82.23518115217212
4 5.673354405522616 99.72908442216914
5 -70.97323442610492 89.38083190970693
6 42.41649872324592 -70.50769231283438
7 6.5149133380654405 -95.77865080570223
8 2.888792508476996 89.90163619417535
EOF
